
  32   50
   9    5   10   19   12    8   10   18   24    9    1   10    5   10    7    9   10   17   14   17    7   10   13    8    3    8   26    8   14   12    9   10    0    0    0    0    0    0    0    0    0    0    0    0    0    0    0    0    0    0

   0   0   0   0   0   0   0   0   0   0   0   0   0   0   0   0   0   0   0   0   0   0   0   0   0   0   0   0   0   0   0   0   0   0   0   0   0   0   0   0   0   0   0   0   0   0   0   0   0   0   0   8 2 3 4 5 6 8 9 11 
   8   0   0   0   0   1   0   0   0   0   0   0   0   0   0   0   0   0   0   0   0   0   0   0   0   1   0   0   0   0   0   0   0   0   0   0   0   0   0   0   0   0   0   0   0   0   0   0   0   0   0   6 31 30 15 13 10 7 
   2   0   0   0   2   0   0   0   0   0   0   0   0   0   0   3   0   0   0   0   0   0   0   0   0   0   0   0   0   0   0   0   0   0   0   0   0   0   0   0   0   0   0   0   0   0   0   0   0   0   0   8 30 21 20 19 18 17 14 12 
   6   0   0   0   0   8   0   0   0   0   0   0   0   0   6   0   0   0   0   0   0   0   0   0   0   0   0   0   0   0   0   0   0   0   0   0   0   0   0   0   0   0   0   0   0   0   0   0   0   0   0   7 30 29 28 25 24 16 15 
   1   0   0   0   0   0   0  10   0   0   0   1   9   0   0   0   0   0   0   0   0   0   2   0   0   0   0   0   0   2   0   0   0   0   0   0   0   0   0   0   0   0   0   0   0   0   0   0   0   0   0   7 31 26 25 24 20 18 16 
   4   0   5   0   8   0   0   0   0   0   0   0   3   0   0   0   3   0   0   0  10   0   0   0   0   0   0   0   0   0   3   1   0   0   0   0   0   0   0   0   0   0   0   0   0   0   0   0   0   0   0   5 31 25 24 16 15 
   2   0   0   0   0   0   0   0   0   0   8   0   0   0   0   0   0   0   0   0   0   0   0   0   0   0   0   0   0   0   0   0   0   0   0   0   0   0   0   0   0   0   0   0   0   0   0   0   0   0   0   7 29 28 27 26 22 19 18 
  10   0   0   0   0   0   0   0   7   3   0   0   0   0   0   0   7   0   0   0   0   0   0   0   2   0   0   0   0   0   0   0   0   0   0   0   0   0   0   0   0   0   0   0   0   0   0   0   0   0   0   3 28 26 13 
  10   0   0   0   0   0   0   0   0   0   0   0   0   0   0   0   0   0   4   0   6   0   0   0   0   0   8   0   0   0   9   0   0   0   0   0   0   0   0   0   0   0   0   0   0   0   0   0   0   0   0   7 30 28 26 25 24 22 18 
   1   0   0   0   0   0   0   0   0   0   2   0   0   0   0   0   2   7   9   0   0   0  10   0   0   0   0   9   8   0   0   0   0   0   0   0   0   0   0   0   0   0   0   0   0   0   0   0   0   0   0   6 27 26 25 23 22 19 
   3   0   0   0   0   0   0   0   6   0   0   0   0   0   0   0   0   0   0   0   0   0   0   0   0   0   0   0   0   0   0   0   0   0   0   0   0   0   0   0   0   0   0   0   0   0   0   0   0   0   0   5 28 26 25 24 16 
   5   9   0   0  10   4   0   0   0   0   0   0   0   0   0   0   0   9   0   0   6   0   0   0   0   0   0   0   0   0   3   1   0   0   0   0   0   0   0   0   0   0   0   0   0   0   0   0   0   0   0   6 27 26 25 24 23 22 
   2   0   0   4   9   0   0   0   0  10   0   0   0   0   5   0   6   4   0   0   0   0   5   0   0   0   0   0   0   0   0   9   0   0   0   0   0   0   0   0   0   0   0   0   0   0   0   0   0   0   0   4 25 24 23 16 
   1   0   0   0   0   0   0   0  10   0   0   0   0   0   0   0   0   0   3   0   0   0   0   0   0   0   0   0   0   8   0   0   7   0   0   0   0   0   0   0   0   0   0   0   0   0   0   0   0   0   0   3 29 23 22 
   5   0   0   0  10   0   0   0   0   0   0   1   0   0   0   0   0   0   0   0   0   0   0   2   0   2   0   9   0   7   3   0   0   0   0   0   0   0   0   0   0   0   0   0   0   0   0   0   0   0   0   2 26 18 
  10   0   0   4   0   0   0   0   0   0   0   0   0   5   0   0   5   0   0   0   0   0   0   0   0   0   0   6   0   0   6   0   0   0   0   0   0   0   0   0   0   0   0   0   0   0   0   0   0   0   0   2 27 22 
   9   0   0   0   0   0   0   0   0   0   0   0   0   0   0   6   0   0   9  10   0   0   0   0   0   0   0   0   0   0   0   0   0   0   0   0   0   0   0   0   0   0   0   0   0   0   0   0   0   0   0   2 25 23 
   7   0   0   0   0   0   0   0   0   0   0   0   0   0   0   0   6   8   2   0   0   0   0   0   0   0   0   0   0   0   3   0   0   0   0   0   0   0   0   0   0   0   0   0   0   0   0   0   0   0   0   1 23 
   8   0   0   2   0   0   0   0   0   0   0   0   0   0   0   0   0   0   0   6   0   7   0   0   0   0   0   0   0   0   0   0   1   0   0   0   0   0   0   0   0   0   0   0   0   0   0   0   0   0   0   1 24 
   4   0   0   0   0   0   0   0   0  10   0   0   0   0   0   0   0   0   0   0   0   0   0   0   0   0   0   8   0   3   0   0   0   0   0   0   0   0   0   0   0   0   0   0   0   0   0   0   0   0   0   1 22 
   2   0   0   0   0   0   0   0   0   0   0   0   4   0   5   0   0   0   0   0   0   0   0   0   7   0   0   4   0   7   0   5   0   0   0   0   0   0   0   0   0   0   0   0   0   0   0   0   0   0   0   1 22 
   3   0   0  10   0   0   0   0   0   0   0   0   0   0   0   0   1  10   0   0   1   0   0   0   4   0   0   0   0   3   0   0   0   0   0   0   0   0   0   0   0   0   0   0   0   0   0   0   0   0   0   1 32
   8   7   0   0   0   0   0   7   0   0   0   0   0   0   0   7   5   0   0   7   1   0   4   0   0   0   0   0   0   0   0   0   0   0   0   0   0   0   0   0   0   0   0   0   0   0   0   0   0   0   0   1 32
   7   0   0   0   0   0   0   0   0   2   0   0   0   0   0   0   0   0   0   9   0   0   0   0   0   0   0   0   0   0   0   0   0   0   0   0   0   0   0   0   0   0   0   0   0   0   0   0   0   0   0   1 32
   4   2   0   1   0   0   6   0   7   0   0   0   0   0   8   0   0   0   0   0   0   0   0   0   0   0   8  10   0   0   0   0   0   0   0   0   0   0   0   0   0   0   0   0   0   0   0   0   0   0   0   1 32
   4   0   0   0   0   0   0   0   0   0   0   0   8   0   0   0   0   0   0   0   0   0   0  10   0   0   0  10   0   0   0   0  10   0   0   0   0   0   0   0   0   0   0   0   0   0   0   0   0   0   0   1 32
   1   0   0   0   0   0   0   0   0   0   0   0   0   0   0   0   0   0   0   0   0   0   0   0   0   0   0   0   0   1   0   0   0   0   0   0   0   0   0   0   0   0   0   0   0   0   0   0   0   0   0   1 32
   3   0   0   0   0   0   0   9   0   4   0   0   0   0   0   0   0   0   7   0   0   0   0   0   0   2   0   0   0   7   0   0   0   0   0   0   0   0   0   0   0   0   0   0   0   0   0   0   0   0   0   1 32
   5   0   0   0   6   8   0   0   0   0   0   1   0   0   0   0   0   0   0   0   0   0   0   0   0   0   0   0   0   0   0   0   0   0   0   0   0   0   0   0   0   0   0   0   0   0   0   0   0   0   0   1 32
   6   0   1   0   0   0   0   0   0  10   4   0   0   0   4   0   0   0   0   1   0   0   0   5   0   0   0  10   0   0   6   0   0   0   0   0   0   0   0   0   0   0   0   0   0   0   0   0   0   0   0   1 32
   4   0   0   0   0   7   8   0   0   9   0   0   0   0   0   0   0   0   0   0   0   0   0   0   0   0   0   2   0   0   0   0   0   0   0   0   0   0   0   0   0   0   0   0   0   0   0   0   0   0   0   1 32
   0   0   0   0   0   0   0   0   0   0   0   0   0   0   0   0   0   0   0   0   0   0   0   0   0   0   0   0   0   0   0   0   0   0   0   0   0   0   0   0   0   0   0   0   0   0   0   0   0   0   0   0 
